certificates/rado_a12_c140_N30.cnf
c Rad2 upper bound instance: x1 + 12*x2 - x3 = 140, interval [1,30]
p cnf 30 148
1 5 12 0
-1 -5 -12 0
1 13 17 0
-1 -13 -17 0
1 14 29 0
-1 -14 -29 0
2 6 12 0
-2 -6 -12 0
2 13 18 0
-2 -13 -18 0
2 14 30 0
-2 -14 -30 0
3 7 12 0
-3 -7 -12 0
3 13 19 0
-3 -13 -19 0
4 8 12 0
-4 -8 -12 0
4 13 20 0
-4 -13 -20 0
5 9 12 0
-5 -9 -12 0
5 13 21 0
-5 -13 -21 0
6 10 12 0
-6 -10 -12 0
6 13 22 0
-6 -13 -22 0
7 11 12 0
-7 -11 -12 0
7 13 23 0
-7 -13 -23 0
8 12 0
-8 -12 0
8 13 24 0
-8 -13 -24 0
1 9 11 0
-1 -9 -11 0
9 12 13 0
-9 -12 -13 0
9 13 25 0
-9 -13 -25 0
2 10 11 0
-2 -10 -11 0
10 12 14 0
-10 -12 -14 0
10 13 26 0
-10 -13 -26 0
3 11 0
-3 -11 0
11 12 15 0
-11 -12 -15 0
11 13 27 0
-11 -13 -27 0
4 11 12 0
-4 -11 -12 0
12 16 0
-12 -16 0
12 13 28 0
-12 -13 -28 0
5 11 13 0
-5 -11 -13 0
12 13 17 0
-12 -13 -17 0
13 29 0
-13 -29 0
6 11 14 0
-6 -11 -14 0
12 14 18 0
-12 -14 -18 0
13 14 30 0
-13 -14 -30 0
7 11 15 0
-7 -11 -15 0
12 15 19 0
-12 -15 -19 0
8 11 16 0
-8 -11 -16 0
12 16 20 0
-12 -16 -20 0
9 11 17 0
-9 -11 -17 0
12 17 21 0
-12 -17 -21 0
10 11 18 0
-10 -11 -18 0
12 18 22 0
-12 -18 -22 0
11 19 0
-11 -19 0
12 19 23 0
-12 -19 -23 0
11 12 20 0
-11 -12 -20 0
12 20 24 0
-12 -20 -24 0
1 10 21 0
-1 -10 -21 0
11 13 21 0
-11 -13 -21 0
12 21 25 0
-12 -21 -25 0
2 10 22 0
-2 -10 -22 0
11 14 22 0
-11 -14 -22 0
12 22 26 0
-12 -22 -26 0
3 10 23 0
-3 -10 -23 0
11 15 23 0
-11 -15 -23 0
12 23 27 0
-12 -23 -27 0
4 10 24 0
-4 -10 -24 0
11 16 24 0
-11 -16 -24 0
12 24 28 0
-12 -24 -28 0
5 10 25 0
-5 -10 -25 0
11 17 25 0
-11 -17 -25 0
12 25 29 0
-12 -25 -29 0
6 10 26 0
-6 -10 -26 0
11 18 26 0
-11 -18 -26 0
12 26 30 0
-12 -26 -30 0
7 10 27 0
-7 -10 -27 0
11 19 27 0
-11 -19 -27 0
8 10 28 0
-8 -10 -28 0
11 20 28 0
-11 -20 -28 0
9 10 29 0
-9 -10 -29 0
11 21 29 0
-11 -21 -29 0
10 30 0
-10 -30 0
11 22 30 0
-11 -22 -30 0
