certificates/rado_a12_c140_N30.drat
12 -30 0
-30 0
10 0
-12 0
8 0
16 0
26 0
-28 0
-11 0
-13 0
-6 0
20 0
0
